p cnf 29 115
1 3 5 7 0
2 4 6 8 0
-1 -3 0
-1 -5 0
-1 -7 0
-3 -5 0
-3 -7 0
-5 -7 0
-2 -4 0
-2 -6 0
-2 -8 0
-4 -6 0
-4 -8 0
-6 -8 0
-1 -2 0
-3 -4 0
-5 -6 0
-7 -8 0
9 12 15 18 21 24 27 0
10 13 16 19 22 25 28 0
11 14 17 20 23 26 29 0
-9 -12 0
-9 -15 0
-9 -18 0
-9 -21 0
-9 -24 0
-9 -27 0
-12 -15 0
-12 -18 0
-12 -21 0
-12 -24 0
-12 -27 0
-15 -18 0
-15 -21 0
-15 -24 0
-15 -27 0
-18 -21 0
-18 -24 0
-18 -27 0
-21 -24 0
-21 -27 0
-24 -27 0
-10 -13 0
-10 -16 0
-10 -19 0
-10 -22 0
-10 -25 0
-10 -28 0
-13 -16 0
-13 -19 0
-13 -22 0
-13 -25 0
-13 -28 0
-16 -19 0
-16 -22 0
-16 -25 0
-16 -28 0
-19 -22 0
-19 -25 0
-19 -28 0
-22 -25 0
-22 -28 0
-25 -28 0
-11 -14 0
-11 -17 0
-11 -20 0
-11 -23 0
-11 -26 0
-11 -29 0
-14 -17 0
-14 -20 0
-14 -23 0
-14 -26 0
-14 -29 0
-17 -20 0
-17 -23 0
-17 -26 0
-17 -29 0
-20 -23 0
-20 -26 0
-20 -29 0
-23 -26 0
-23 -29 0
-26 -29 0
-9 -10 0
-9 -11 0
-10 -11 0
-12 -13 0
-12 -14 0
-13 -14 0
-15 -16 0
-15 -17 0
-16 -17 0
-18 -19 0
-18 -20 0
-19 -20 0
-21 -22 0
-21 -23 0
-22 -23 0
-24 -25 0
-24 -26 0
-25 -26 0
-27 -28 0
-27 -29 0
-28 -29 0
18 19 20  -7 0
18 19 20  -8 0

7 8  -18 0
7 8  -19 0
7 8  -20 0

9 10 11  -3 0
9 10 11  -4 0

3 4  -9 0
3 4  -10 0
3 4  -11 0

